variable T index 300.0
variable P index 1.0
log log.lammps

units real
atom_style full
bond_style harmonic
angle_style harmonic
dihedral_style none
improper_style none

read_data data.lmp

pair_style lj/cut/coul/long 12.0 12.0
pair_coeff 1 1 0.0 1.0
pair_coeff 2 2 0.0 1.0
pair_coeff 3 3 0.15535 3.166
kspace_style pppm 1.0e-5
pair_modify mix geometric

special_bonds lj/coul 1.0e-100 1.0e-100 1.0
neighbor 2.0 bin
timestep 1
neigh_modify every 1 delay 2 check yes

set type 1 charge 0.4238
set type 2 charge 0.4238
set type 3 charge -0.8476

velocity all create $T 837475
fix 11 all rigid/npt molecule temp $T $T 1000 iso $P $P 10000

thermo 10000
thermo_style custom step lx ly lz pe etotal press vol pxx pyy pzz temp density
run 10000000

unfix 11
reset_timestep 0
fix 11 all rigid/nvt molecule temp $T $T 100

compute cc1 all chunk/atom bin/sphere 10 10 10 0 10 1 discard no nchunk once
compute myChunk all dipole/chunk cc1
#compute RDF all rdf 100 1 3
fix 12 all ave/time 1 1 1 c_myChunk[*] file tmp.out.1fs mode vector
#fix 23 all ave/time 100 1 100 c_RDF[*] file tmp.rdf mode vector

thermo 10000
thermo_style custom step lx ly lz pe etotal press vol pxx pyy pzz temp density

#variable oscillate equal 0.01*sin(step/2*PI/25000)
#fix kick all efield 0.0 0.0 v_oscillate

#dump 33 all custom 1000 tmp.xyz id mol type q x y z
run 100000000
